\Generated using SimplexCpp @ 28-02-2020 18:43:05
\Optimal at z = -256

Minimize
 obj: -2 x1 -4 x2 -5 x3 
Subject To
 c1: +1 x1 +3 x2 +4 x3 +1 x4 <= 256
 c2: +1 x1 +2 x2 +3 x3 +1 x5 <= 128
 c3: +1 x1 +1 x2 +2 x3 +1 x6 <= 96
Bounds
 x1 >= 0 x2 >= 0 x3 >= 0 x4 >= 0 x5 >= 0 x6 >= 0

End